# Solution for model Objective
# Objective value = 6
M 6
W6 0
W7 0
W8 0
W9 0
W16 0
W20 0
W22 0
W23 0
W24 0
W25 0
W26 0
W27 0
W28 0
W29 0
W30 0
W35 0
W39 0
W40 0
W41 0
W43 0
W45 0
W46 0
W48 0
W53 0
W56 0
W60 0
W61 0
W62 0
W67 0
W68 0
W69 0
W70 0
W71 0
W72 0
W73 0
W74 0
W0 0
W1 2
W2 0
W3 0
W4 5
W5 1
W10 0
W11 0
W12 0
W13 0
W14 4
W15 0
W17 3
W18 0
W19 0
W21 6
W31 6
W32 0
W33 0
W34 0
W36 0
W37 0
W38 0
W42 0
W44 3
W47 4
W49 5
W50 0
W51 0
W52 0
W54 3
W55 5
W57 0
W58 0
W59 4
W63 0
W64 2
W65 1
W66 0
d0_1 1
d0_2 0
d0_3 0
d0_4 0
d0_5 0
d0_6 0
d0_7 0
d0_8 0
d0_9 0
d0_0 0
d1_1 0
d1_2 1
d1_3 0
d1_4 0
d1_5 0
d1_6 0
d1_7 0
d1_8 0
d1_9 0
d1_0 0
d2_1 0
d2_2 0
d2_3 0
d2_4 1
d2_5 0
d2_6 0
d2_7 0
d2_8 0
d2_9 0
d2_0 0
d3_1 0
d3_2 0
d3_3 0
d3_4 0
d3_5 1
d3_6 0
d3_7 0
d3_8 0
d3_9 0
d3_0 0
d4_1 0
d4_2 0
d4_3 1
d4_4 0
d4_5 0
d4_6 0
d4_7 0
d4_8 0
d4_9 0
d4_0 0
d5_1 0
d5_2 0
d5_3 0
d5_4 0
d5_5 0
d5_6 0
d5_7 0
d5_8 0
d5_9 0
d5_0 1
d6_1 0
d6_2 0
d6_3 1
d6_4 0
d6_5 0
d6_6 0
d6_7 0
d6_8 0
d6_9 0
d6_0 0
d7_1 0
d7_2 0
d7_3 0
d7_4 1
d7_5 0
d7_6 0
d7_7 0
d7_8 0
d7_9 0
d7_0 0
d8_1 0
d8_2 0
d8_3 0
d8_4 0
d8_5 0
d8_6 0
d8_7 0
d8_8 0
d8_9 0
d8_0 1
d9_1 0
d9_2 0
d9_3 0
d9_4 1
d9_5 0
d9_6 0
d9_7 0
d9_8 0
d9_9 0
d9_0 0
d10_1 0
d10_2 0
d10_3 0
d10_4 0
d10_5 0
d10_6 1
d10_7 0
d10_8 0
d10_9 0
d10_0 0
d11_1 0
d11_2 0
d11_3 1
d11_4 0
d11_5 0
d11_6 0
d11_7 0
d11_8 0
d11_9 0
d11_0 0
d12_1 0
d12_2 0
d12_3 0
d12_4 0
d12_5 0
d12_6 1
d12_7 0
d12_8 0
d12_9 0
d12_0 0
d13_1 1
d13_2 0
d13_3 0
d13_4 0
d13_5 0
d13_6 0
d13_7 0
d13_8 0
d13_9 0
d13_0 0
d14_1 0
d14_2 0
d14_3 0
d14_4 0
d14_5 1
d14_6 0
d14_7 0
d14_8 0
d14_9 0
d14_0 0
d15_1 0
d15_2 1
d15_3 0
d15_4 0
d15_5 0
d15_6 0
d15_7 0
d15_8 0
d15_9 0
d15_0 0
d16_1 0
d16_2 0
d16_3 0
d16_4 0
d16_5 0
d16_6 0
d16_7 0
d16_8 0
d16_9 0
d16_0 1
d17_1 0
d17_2 0
d17_3 0
d17_4 1
d17_5 0
d17_6 0
d17_7 0
d17_8 0
d17_9 0
d17_0 0
